Copyright (C) 2013-2015, Filipe Brandao
Build (method = -2)
  #dp: 40714
  Step-3' Graph: 652 vertices and 11980 arcs (0.15s)
  Step-4' Graph: 643 vertices and 11962 arcs (0.15s)
  #V4/#V3 = 0.99
  #A4/#A3 = 1.00
Ready! (0.15s)
Optimize a model with 686 rows, 11963 columns and 34612 nonzeros
Presolve removed 13 rows and 28 columns
Presolve time: 0.04s
Presolved: 673 rows, 11935 columns, 34555 nonzeros
Variable types: 0 continuous, 11935 integer (0 binary)
Optimize a model with 673 rows, 11935 columns and 34555 nonzeros
Presolved: 673 rows, 11935 columns, 34555 nonzeros

Root barrier log...

Ordering time: 0.00s

Barrier statistics:
 AA' NZ     : 2.268e+04
 Factor NZ  : 7.284e+04 (roughly 6 MBytes of memory)
 Factor Ops : 1.062e+07 (less than 1 second per iteration)
 Threads    : 1

                  Objective                Residual
Iter       Primal          Dual         Primal    Dual     Compl     Time
   0   9.88057539e+04 -2.14116759e+06  1.97e+06 2.22e-16  1.73e+03     0s
   1   2.62936932e+04 -6.38852617e+05  3.82e+05 8.88e-16  3.42e+02     0s
   2   4.64280129e+03 -2.22535275e+05  5.18e+04 4.51e-14  5.12e+01     0s
   3   1.11750151e+03 -9.85288812e+04  6.68e+03 3.64e-14  9.05e+00     0s
   4   9.61475616e+02 -3.36847857e+04  2.31e+03 1.20e-14  2.74e+00     0s
   5   7.94454867e+02 -1.61057431e+04  4.56e+02 2.66e-14  9.19e-01     0s
   6   7.03260217e+02 -7.05410872e+03  2.92e+01 1.38e-14  3.34e-01     0s
   7   6.50171466e+02 -3.61881823e+03  2.49e+01 9.99e-15  1.84e-01     0s
   8   5.69630776e+02 -1.68368317e+03  1.42e+01 5.96e-15  9.61e-02     0s
   9   4.82631367e+02 -1.43393342e+03  3.20e+00 7.55e-15  8.05e-02     0s
  10   4.70333499e+02 -1.08993597e+03  2.72e+00 7.87e-15  6.55e-02     0s
  11   4.51278950e+02 -1.02340735e+03  2.52e+00 9.59e-15  6.19e-02     0s
  12   4.33188643e+02 -9.15054980e+02  2.34e+00 9.68e-15  5.66e-02     0s
  13   2.90191386e+02 -7.85746043e+02  1.73e+00 9.11e-15  4.52e-02     0s
  14   2.88095277e+02 -7.22537357e+02  1.70e+00 1.06e-14  4.24e-02     0s
  15   2.22752101e+02 -5.31033764e+02  1.25e+00 9.57e-15  3.16e-02     0s
  16   1.65731272e+02 -2.10713730e+02  8.92e-01 7.26e-15  1.58e-02     0s
  17   1.27875822e+02 -1.22748877e+02  6.68e-01 6.21e-15  1.05e-02     0s
  18   8.39968826e+01 -6.18020727e+01  3.76e-01 6.92e-15  6.12e-03     0s
  19   7.78648668e+01 -4.62552624e+01  3.03e-01 6.96e-15  5.21e-03     0s
  20   6.76339548e+01  6.05958234e+00  1.75e-01 6.62e-15  2.58e-03     0s
  21   6.86624554e+01  3.63583283e+01  7.85e-02 6.33e-15  1.35e-03     0s
  22   6.09596647e+01  4.91345441e+01  3.03e-02 6.07e-15  4.95e-04     0s
  23   5.87784439e+01  5.20975554e+01  1.81e-02 6.42e-15  2.80e-04     0s
  24   5.70444681e+01  5.42261050e+01  8.22e-03 5.50e-15  1.18e-04     0s
  25   5.60417187e+01  5.50450686e+01  2.61e-03 6.31e-15  4.17e-05     0s
  26   5.56201109e+01  5.54817205e+01  1.67e-04 6.53e-15  5.79e-06     0s
  27   5.55863000e+01  5.55838730e+01  4.93e-07 6.21e-15  1.02e-07     0s
  28   5.55860000e+01  5.55860000e+01  2.03e-12 6.43e-15  6.61e-13     0s

Barrier solved model in 28 iterations and 0.21 seconds
Optimal objective 5.55860000e+01


Root relaxation: objective 5.558600e+01, 8311 iterations, 0.39 seconds

    Nodes    |    Current Node    |     Objective Bounds      |     Work
 Expl Unexpl |  Obj  Depth IntInf | Incumbent    BestBd   Gap | It/Node Time

     0     0   55.58600    0  141          -   55.58600     -      -    1s
H    0     0                      57.0000000   55.58600  2.48%     -    2s
     0     0   55.66667    0  172   57.00000   55.66667  2.34%     -    5s
H    0     0                      56.0000000   55.66667  0.60%     -    5s

Cutting planes:
  Gomory: 1
  MIR: 1

Explored 0 nodes (17597 simplex iterations) in 5.68 seconds
Thread count was 1 (of 4 available processors)

Optimal solution found (tolerance 0.00e+00)
Best objective 5.600000000000e+01, best bound 5.600000000000e+01, gap 0.0%
Preprocessing time: 0.17 seconds
Gurobi run time: 5.68 seconds
Total run time: 5.85 seconds
Objective: 56
Solution:
1 x [i=1, i=5, i=21, i=22, i=22, i=24, i=31, i=34, i=37]
3 x [i=1, i=6, i=7, i=17, i=26, i=28, i=33, i=37, i=42]
3 x [i=1, i=6, i=14, i=18, i=30, i=31, i=32, i=32, i=33]
1 x [i=1, i=1, i=3, i=17, i=30, i=33, i=36, i=41, i=42]
1 x [i=1, i=1, i=1, i=6, i=6, i=11, i=13, i=25]
4 x [i=2, i=4, i=9, i=15, i=25, i=34, i=35, i=35, i=38]
2 x [i=3, i=6, i=7, i=13, i=26, i=29, i=33, i=38, i=42]
1 x [i=3, i=9, i=12, i=13, i=16, i=36, i=36, i=36, i=37]
1 x [i=3, i=9, i=12, i=13, i=16, i=16, i=43, i=43, i=43]
1 x [i=3, i=9, i=15, i=16, i=17, i=19, i=36, i=41, i=41]
5 x [i=3, i=3, i=21, i=22, i=22, i=24, i=31, i=34, i=37]
1 x [i=4, i=6, i=7, i=25, i=25, i=27, i=32, i=35, i=38]
4 x [i=4, i=8, i=12, i=13, i=16, i=25, i=39, i=40, i=40]
3 x [i=4, i=8, i=12, i=16, i=19, i=19, i=39, i=39, i=41]
1 x [i=5, i=17, i=20, i=20, i=21, i=24, i=25, i=31, i=34]
1 x [i=5, i=5, i=11, i=15, i=17, i=26, i=36, i=41, i=41]
1 x [i=5, i=5, i=11, i=15, i=21, i=26, i=28, i=43, i=43]
1 x [i=5, i=5, i=11, i=15, i=15, i=25, i=38, i=40, i=43]
2 x [i=5, i=5, i=14, i=15, i=17, i=23, i=36, i=41, i=41]
1 x [i=6, i=7, i=12, i=16, i=23, i=26, i=28, i=37, i=42]
1 x [i=6, i=7, i=14, i=20, i=21, i=26, i=30, i=35, i=38]
1 x [i=6, i=7, i=7, i=23, i=27, i=31, i=32, i=32, i=35]
3 x [i=6, i=10, i=15, i=18, i=23, i=24, i=28, i=35, i=42]
1 x [i=7, i=9, i=18, i=25, i=30, i=32, i=33, i=34]
1 x [i=7, i=9, i=21, i=22, i=22, i=24, i=30, i=31, i=35]
1 x [i=7, i=11, i=11, i=13, i=25, i=28, i=30, i=38, i=38]
1 x [i=8, i=8, i=12, i=17, i=25, i=32, i=32, i=34, i=34]
5 x [i=9, i=10, i=14, i=18, i=20, i=27, i=29, i=31, i=39]
1 x [i=9, i=10, i=16, i=18, i=24, i=27, i=28, i=30, i=36]
1 x [i=9, i=13, i=14, i=17, i=24, i=27, i=29, i=30, i=36]
1 x [i=9, i=14, i=19, i=24, i=27, i=29, i=30, i=36]
1 x [i=9, i=16, i=18, i=24, i=27, i=28, i=30, i=36]
